Minimize
+ 3.0 x49 + 3.0 x50 + 3.0 x55 + 3.0 x56 + 3.0 x60 + 3.0 x61 + 3.0 x72 + 3.0 x73 + 3.0 x80 + 3.0 x81 + 3.0 x86 + 3.0 x87 + 7.0 x154 + 7.0 x155 + 7.0 x156 + 7.0 x157 + 7.0 x158 + 7.0 x159 + 7.0 x160 + 7.0 x161 + 7.0 x162 + 7.0 x163 + 7.0 x164 + 7.0 x165 + 7.0 x166 + 7.0 x167 + 7.0 x168 + 7.0 x169 + 3.0 x196 + 3.0 x197 + 3.0 x198 + 3.0 x201 + 3.0 x202 + 3.0 x203 + 3.0 x246 + 3.0 x247 + 3.0 x248 + 3.0 x249 + 3.0 x250 + 3.0 x251 + 3.0 x300 + 3.0 x301 + 3.0 x302 + 3.0 x303 + 3.0 x304 + 3.0 x305 + 3.0 x436 + 3.0 x437 + 3.0 x440 + 3.0 x441 + 3.0 x452 + 3.0 x453 + 3.0 x480 + 3.0 x481 + 3.0 x484 + 3.0 x485 + 3.0 x492 + 3.0 x493 + 7.0 x506 + 7.0 x507 + 7.0 x508 + 7.0 x509 + 7.0 x510 + 7.0 x511 + 7.0 x512 + 7.0 x513 + 7.0 x514 + 7.0 x515 + 7.0 x516 + 7.0 x534 + 7.0 x535 + 7.0 x536 + 7.0 x537 + 7.0 x538 + 7.0 x539 + 3.0 x540 + 3.0 x541 + 3.0 x542 + 7.0 x543 + 7.0 x544 + 7.0 x545 + 10.0 x546 + 10.0 x547 + 10.0 x548 + 3.0 x632 + 3.0 x633 + 3.0 x634 + 3.0 x635 + 3.0 x636 + 3.0 x637 + 7.0 x713 + 7.0 x714 + 7.0 x715 + 7.0 x716 + 7.0 x717 + 7.0 x718 + 7.0 x719 + 7.0 x720 
Subject To
r_1: + x1 + x2 + x3 - 1.0 x494 - 0.9 x693  = 0
r_2: - 1.0 x1 + x4 + x5 + x6 - 1.0 x540 - 1.0 x543 - 1.0 x546  = 0
r_3: - 1.0 x2 + x7 + x8 + x9 - 1.0 x541 - 1.0 x544 - 1.0 x547  = 0
r_4: - 1.0 x3 + x10 + x11 + x12 - 1.0 x542 - 1.0 x545 - 1.0 x548  = 0
r_5: - 0.7 x4 + x13  = 0
r_6: - 0.3 x4 + x14 + x15  = 0
r_7: - 1.0 x5 - 1.0 x7 + x16 + x17  = 0
r_8: - 1.0 x6 - 1.0 x10 + x18 + x19  = 0
r_9: - 1.0 x8 + x20 + x21  = 0
r_10: - 1.0 x9 - 1.0 x11 + x22 + x23  = 0
r_11: - 1.0 x12 + x24 + x25  = 0
r_12: - 1.0 x13 - 1.0 x14 - 0.7 x18 + x26  = 0
r_13: - 1.0 x15 - 0.3 x18 + x27  = 0
r_14: - 0.7 x16 + x28  = 0
r_15: - 0.3 x16 + x29  = 0
r_16: - 1.0 x17 - 1.0 x22 + x30  = 0
r_17: - 1.0 x19 - 1.0 x24 + x31  = 0
r_18: - 1.0 x20 + x32  = 0
r_19: - 1.0 x21 + x33  = 0
r_20: - 1.0 x23 + x34  = 0
r_21: - 1.0 x25 + x35  = 0
r_22: - 1.0 x26 + x36  = 0
r_23: - 1.0 x27 + x37  = 0
r_24: - 1.0 x28 + x38  = 0
r_25: - 1.0 x29 + x39  = 0
r_26: - 1.0 x30 + x40  = 0
r_27: - 1.0 x31 + x41  = 0
r_28: - 1.0 x32 + x42  = 0
r_29: - 1.0 x33 + x43  = 0
r_30: - 1.0 x34 + x44  = 0
r_31: - 1.0 x35 + x45  = 0
r_32: - 0.9 x36 + x46 + x47 - 1.0 x639  = 0
r_33: - 0.1 x36 + x48  = 0
r_34: - 0.9 x37 - 0.9 x41 - 0.9 x45 + x49 + x50 - 1.0 x641 - 1.0 x644 - 1.0 x647  = 0
r_35: - 0.1 x37 + x51  = 0
r_36: - 0.9 x38 + x52 + x53 - 1.0 x638  = 0
r_37: - 0.1 x38 + x54  = 0
r_38: - 0.9 x39 - 0.9 x40 - 0.9 x44 + x55 + x56 - 1.0 x640 - 1.0 x643 - 1.0 x646  = 0
r_39: - 0.1 x39 + x57  = 0
r_40: - 0.1 x40 + x58  = 0
r_41: - 0.1 x41 + x59  = 0
r_42: - 0.9 x42 - 0.9 x43 + x60 + x61 - 1.0 x642 - 1.0 x645  = 0
r_43: - 0.1 x42 + x62  = 0
r_44: - 0.1 x43 + x63  = 0
r_45: - 0.1 x44 + x64  = 0
r_46: - 0.1 x45 + x65  = 0
r_47: - 1.0 x46 - 1.0 x49 + x66 + x67  = 0
r_48: - 1.0 x47 - 1.0 x50 + x68 + x69  = 0
r_49: - 1.0 x48 + x70 + x71 - 0.9 x367  = 0
r_50: - 1.0 x51 - 1.0 x59 - 1.0 x65 + x72 + x73 - 0.9 x368 - 0.9 x369 - 0.9 x370  = 0
r_51: - 1.0 x52 - 1.0 x55 + x74 + x75  = 0
r_52: - 1.0 x53 - 1.0 x56 + x76 + x77  = 0
r_53: - 1.0 x54 + x78 + x79 - 0.9 x351  = 0
r_54: - 1.0 x57 - 1.0 x58 - 1.0 x64 + x80 + x81 - 0.9 x352 - 0.9 x353 - 0.9 x358  = 0
r_55: - 1.0 x60 + x82 + x83  = 0
r_56: - 1.0 x61 + x84 + x85  = 0
r_57: - 1.0 x62 - 1.0 x63 + x86 + x87 - 0.9 x355 - 0.9 x356 - 0.9 x357  = 0
r_58: - 0.7 x66 + x88  = 0
r_59: - 0.3 x66 + x89 + x90  = 0
r_60: - 1.0 x67 - 1.0 x68 + x91 + x92  = 0
r_61: - 1.0 x69 + x93 + x94  = 0
r_62: - 1.0 x70 - 1.0 x72 + x95 + x96  = 0
r_63: - 1.0 x71 - 1.0 x73 + x97 + x98  = 0
r_64: - 0.7 x74 + x99  = 0
r_65: - 0.3 x74 + x100 + x101  = 0
r_66: - 1.0 x75 - 1.0 x76 + x102 + x103  = 0
r_67: - 1.0 x77 + x104 + x105  = 0
r_68: - 1.0 x78 - 1.0 x80 + x106 + x107  = 0
r_69: - 1.0 x79 - 1.0 x81 + x108 + x109  = 0
r_70: - 0.7 x82 + x110  = 0
r_71: - 0.3 x82 + x111 + x112  = 0
r_72: - 1.0 x83 - 1.0 x84 + x113 + x114  = 0
r_73: - 1.0 x85 + x115 + x116  = 0
r_74: - 1.0 x86 + x117 + x118 - 1.0 x399  = 0
r_75: - 1.0 x87 + x119 + x120 - 1.0 x400  = 0
r_76: - 1.0 x88 - 1.0 x89 - 0.7 x91 + x121  = 0
r_77: - 1.0 x90 - 0.3 x91 + x122  = 0
r_78: - 1.0 x92 - 1.0 x93 + x123  = 0
r_79: - 1.0 x94 + x124  = 0
r_80: - 0.7 x95 + x125  = 0
r_81: - 0.3 x95 + x126 + x127  = 0
r_82: - 1.0 x96 - 1.0 x97 + x128 + x129  = 0
r_83: - 1.0 x98 + x130 + x131  = 0
r_84: - 1.0 x99 - 1.0 x100 - 0.7 x102 + x132  = 0
r_85: - 1.0 x101 - 0.3 x102 + x133  = 0
r_86: - 1.0 x103 - 1.0 x104 + x134  = 0
r_87: - 1.0 x105 + x135  = 0
r_88: - 0.7 x106 + x136  = 0
r_89: - 0.3 x106 + x137 + x138  = 0
r_90: - 1.0 x107 - 1.0 x108 + x139 + x140  = 0
r_91: - 1.0 x109 + x141 + x142  = 0
r_92: - 1.0 x110 - 1.0 x111 - 0.7 x113 + x143  = 0
r_93: - 1.0 x112 - 0.3 x113 + x144  = 0
r_94: - 1.0 x114 - 1.0 x115 + x145  = 0
r_95: - 1.0 x116 + x146  = 0
r_96: - 0.7 x117 + x147  = 0
r_97: - 0.3 x117 + x148 + x149  = 0
r_98: - 1.0 x118 - 1.0 x119 + x150 + x151  = 0
r_99: - 1.0 x120 + x152 + x153  = 0
r_100: - 1.0 x121 - 1.0 x132 + x154 + x155  = 0
r_101: - 1.0 x122 - 1.0 x133 + x156 + x157  = 0
r_102: - 1.0 x123 - 1.0 x134 + x158 + x159  = 0
r_103: - 1.0 x124 - 1.0 x135 + x160 + x161  = 0
r_104: - 1.0 x125 - 1.0 x126 - 0.7 x128 - 1.0 x136 - 1.0 x137 - 0.7 x139 + x162 + x163  = 0
r_105: - 1.0 x127 - 0.3 x128 - 1.0 x138 - 0.3 x139 + x164 + x165  = 0
r_106: - 1.0 x129 - 1.0 x130 - 1.0 x140 - 1.0 x141 + x166 + x167  = 0
r_107: - 1.0 x131 - 1.0 x142 + x168 + x169  = 0
r_108: - 1.0 x143 + x170 + x171  = 0
r_109: - 1.0 x144 + x172 + x173  = 0
r_110: - 1.0 x145 + x174 + x175  = 0
r_111: - 1.0 x146 + x176 + x177  = 0
r_112: - 1.0 x147 - 1.0 x148 - 0.7 x150 + x178 + x179  = 0
r_113: - 1.0 x149 - 0.3 x150 + x180 + x181  = 0
r_114: - 1.0 x151 - 1.0 x152 + x182 + x183  = 0
r_115: - 1.0 x153 + x184 + x185  = 0
r_116: - 0.9 x154 - 0.9 x170 + x186 + x187 + x188 - 1.0 x705 - 1.0 x713  = 0
r_117: - 0.1 x154 - 0.1 x170 + x189 + x190  = 0
r_118: - 0.9 x155 - 0.9 x171 + x191 + x192 + x193 - 1.0 x706 - 1.0 x714  = 0
r_119: - 0.1 x155 - 0.1 x171 + x194 + x195  = 0
r_120: - 0.9 x156 - 0.9 x158 - 0.9 x160 - 0.9 x172 - 0.9 x174 - 0.9 x176 + x196 + x197 + x198 - 1.0 x707 - 1.0 x709 - 1.0 x711 - 1.0 x715 - 1.0 x717 - 1.0 x719  = 0
r_121: - 0.1 x156 - 0.1 x172 + x199 + x200  = 0
r_122: - 0.9 x157 - 0.9 x159 - 0.9 x161 - 0.9 x173 - 0.9 x175 - 0.9 x177 + x201 + x202 + x203 - 1.0 x708 - 1.0 x710 - 1.0 x712 - 1.0 x716 - 1.0 x718 - 1.0 x720  = 0
r_123: - 0.1 x157 - 0.1 x173 + x204 + x205  = 0
r_124: - 0.1 x158 - 0.1 x174 + x206 + x207  = 0
r_125: - 0.1 x159 - 0.1 x175 + x208 + x209  = 0
r_126: - 0.1 x160 - 0.1 x176 + x210 + x211  = 0
r_127: - 0.1 x161 - 0.1 x177 + x212 + x213  = 0
r_128: - 1.0 x162 - 1.0 x178 + x214 + x215  = 0
r_129: - 1.0 x163 - 1.0 x179 + x216 + x217  = 0
r_130: - 1.0 x164 - 1.0 x180 + x218 + x219  = 0
r_131: - 1.0 x165 - 1.0 x181 + x220 + x221  = 0
r_132: - 1.0 x166 - 1.0 x182 + x222 + x223  = 0
r_133: - 1.0 x167 - 1.0 x183 + x224 + x225  = 0
r_134: - 1.0 x168 - 1.0 x184 + x226 + x227  = 0
r_135: - 1.0 x169 - 1.0 x185 + x228 + x229  = 0
r_136: - 1.0 x186 - 1.0 x196 + x230 + x231  = 0
r_137: - 1.0 x187 - 1.0 x197 + x232 + x233  = 0
r_138: - 1.0 x188 - 1.0 x192 - 1.0 x198 - 1.0 x202 + x234 + x235  = 0
r_139: - 1.0 x189 - 0.9 x214 + x236 + x237  = 0
r_140: - 1.0 x190 - 1.0 x194 - 0.9 x215 - 0.9 x216 + x238 + x239  = 0
r_141: - 1.0 x191 - 1.0 x201 + x240 + x241  = 0
r_142: - 1.0 x193 - 1.0 x203 + x242 + x243  = 0
r_143: - 1.0 x195 - 0.9 x217 + x244 + x245  = 0
r_144: - 1.0 x199 - 1.0 x206 - 1.0 x210 - 0.9 x218 - 0.9 x222 - 0.9 x226 + x246 + x247  = 0
r_145: - 1.0 x200 - 1.0 x204 - 1.0 x207 - 1.0 x208 - 1.0 x211 - 1.0 x212 - 0.9 x219 - 0.9 x220 - 0.9 x223 - 0.9 x224 - 0.9 x227 - 0.9 x228 + x248 + x249  = 0
r_146: - 1.0 x205 - 1.0 x209 - 1.0 x213 - 0.9 x221 - 0.9 x225 - 0.9 x229 + x250 + x251  = 0
r_147: - 0.1 x214 + x252  = 0
r_148: - 0.1 x215 - 0.1 x216 + x253  = 0
r_149: - 0.1 x217 + x254  = 0
r_150: - 0.1 x218 + x255  = 0
r_151: - 0.1 x219 - 0.1 x220 + x256  = 0
r_152: - 0.1 x221 + x257  = 0
r_153: - 0.1 x222 + x258  = 0
r_154: - 0.1 x223 - 0.1 x224 + x259  = 0
r_155: - 0.1 x225 + x260  = 0
r_156: - 0.1 x226 + x261  = 0
r_157: - 0.1 x227 - 0.1 x228 + x262  = 0
r_158: - 0.1 x229 + x263  = 0
r_159: - 0.7 x230 + x264  = 0
r_160: - 0.3 x230 + x265 + x266  = 0
r_161: - 1.0 x231 - 1.0 x234 + x267 + x268  = 0
r_162: - 1.0 x232 + x269 + x270  = 0
r_163: - 1.0 x233 + x271 + x272  = 0
r_164: - 1.0 x235 + x273 + x274  = 0
r_165: - 1.0 x236 - 1.0 x246 + x275 + x276  = 0
r_166: - 1.0 x237 - 1.0 x247 + x277 + x278  = 0
r_167: - 1.0 x238 - 1.0 x248 + x279 + x280  = 0
r_168: - 1.0 x239 - 1.0 x249 + x281 + x282  = 0
r_169: - 0.7 x240 + x283  = 0
r_170: - 0.3 x240 + x284 + x285  = 0
r_171: - 1.0 x241 - 1.0 x242 + x286 + x287  = 0
r_172: - 1.0 x243 + x288 + x289  = 0
r_173: - 1.0 x244 - 1.0 x250 + x290 + x291  = 0
r_174: - 1.0 x245 - 1.0 x251 + x292 + x293  = 0
r_175: - 1.0 x252 + x294 + x295 - 0.9 x582  = 0
r_176: - 1.0 x253 + x296 + x297 - 0.9 x583  = 0
r_177: - 1.0 x254 + x298 + x299 - 0.9 x584  = 0
r_178: - 1.0 x255 - 1.0 x258 - 1.0 x261 + x300 + x301 - 0.9 x585 - 0.9 x588 - 0.9 x591  = 0
r_179: - 1.0 x256 - 1.0 x259 - 1.0 x262 + x302 + x303 - 0.9 x586 - 0.9 x589 - 0.9 x592  = 0
r_180: - 1.0 x257 - 1.0 x260 - 1.0 x263 + x304 + x305 - 0.9 x587 - 0.9 x590 - 0.9 x593  = 0
r_181: - 1.0 x264 - 1.0 x265 - 0.7 x267 + x306  = 0
r_182: - 1.0 x266 - 0.3 x267 + x307  = 0
r_183: - 1.0 x268 - 1.0 x273 + x308  = 0
r_184: - 0.7 x269 + x309  = 0
r_185: - 0.3 x269 + x310  = 0
r_186: - 1.0 x270 - 1.0 x271 + x311  = 0
r_187: - 1.0 x272 + x312  = 0
r_188: - 1.0 x274 + x313  = 0
r_189: - 0.7 x275 + x314  = 0
r_190: - 0.3 x275 + x315 + x316  = 0
r_191: - 1.0 x276 - 1.0 x277 + x317 + x318  = 0
r_192: - 1.0 x278 + x319 + x320  = 0
r_193: - 0.7 x279 + x321  = 0
r_194: - 0.3 x279 + x322 + x323  = 0
r_195: - 1.0 x280 - 1.0 x281 + x324 + x325  = 0
r_196: - 1.0 x282 + x326 + x327  = 0
r_197: - 1.0 x283 - 1.0 x284 - 0.7 x286 + x328  = 0
r_198: - 1.0 x285 - 0.3 x286 + x329  = 0
r_199: - 1.0 x287 - 1.0 x288 + x330  = 0
r_200: - 1.0 x289 + x331  = 0
r_201: - 0.7 x290 + x332  = 0
r_202: - 0.3 x290 + x333 + x334  = 0
r_203: - 1.0 x291 - 1.0 x292 + x335 + x336  = 0
r_204: - 1.0 x293 + x337 + x338  = 0
r_205: - 1.0 x294 - 1.0 x300 + x339 + x340  = 0
r_206: - 1.0 x295 - 1.0 x301 + x341 + x342  = 0
r_207: - 1.0 x296 - 1.0 x302 + x343 + x344  = 0
r_208: - 1.0 x297 - 1.0 x303 + x345 + x346  = 0
r_209: - 1.0 x298 - 1.0 x304 + x347 + x348  = 0
r_210: - 1.0 x299 - 1.0 x305 + x349 + x350  = 0
r_211: - 1.0 x306 + x351  = 0
r_212: - 1.0 x307 + x352  = 0
r_213: - 1.0 x308 + x353  = 0
r_214: - 1.0 x309 + x354  = 0
r_215: - 1.0 x310 + x355  = 0
r_216: - 1.0 x311 + x356  = 0
r_217: - 1.0 x312 + x357  = 0
r_218: - 1.0 x313 + x358  = 0
r_219: - 1.0 x314 - 1.0 x315 - 0.7 x317 + x359  = 0
r_220: - 1.0 x316 - 0.3 x317 + x360  = 0
r_221: - 1.0 x318 - 1.0 x319 + x361  = 0
r_222: - 1.0 x320 + x362  = 0
r_223: - 1.0 x321 - 1.0 x322 - 0.7 x324 + x363  = 0
r_224: - 1.0 x323 - 0.3 x324 + x364  = 0
r_225: - 1.0 x325 - 1.0 x326 + x365  = 0
r_226: - 1.0 x327 + x366  = 0
r_227: - 1.0 x328 + x367  = 0
r_228: - 1.0 x329 + x368  = 0
r_229: - 1.0 x330 + x369  = 0
r_230: - 1.0 x331 + x370  = 0
r_231: - 1.0 x332 - 1.0 x333 - 0.7 x335 + x371  = 0
r_232: - 1.0 x334 - 0.3 x335 + x372  = 0
r_233: - 1.0 x336 - 1.0 x337 + x373  = 0
r_234: - 1.0 x338 + x374  = 0
r_235: - 0.7 x339 + x375  = 0
r_236: - 0.3 x339 + x376 + x377  = 0
r_237: - 1.0 x340 - 1.0 x341 + x378 + x379  = 0
r_238: - 1.0 x342 + x380 + x381  = 0
r_239: - 0.7 x343 + x382  = 0
r_240: - 0.3 x343 + x383 + x384  = 0
r_241: - 1.0 x344 - 1.0 x345 + x385 + x386  = 0
r_242: - 1.0 x346 + x387 + x388  = 0
r_243: - 0.7 x347 + x389  = 0
r_244: - 0.3 x347 + x390 + x391  = 0
r_245: - 1.0 x348 - 1.0 x349 + x392 + x393  = 0
r_246: - 1.0 x350 + x394 + x395  = 0
r_247: - 0.1 x351 + x396  = 0
r_248: - 0.1 x352 + x397  = 0
r_249: - 0.1 x353 + x398  = 0
r_250: - 0.9 x354 + x399 + x400  = 0
r_251: - 0.1 x354 + x401  = 0
r_252: - 0.1 x355 + x402  = 0
r_253: - 0.1 x356 + x403  = 0
r_254: - 0.1 x357 + x404  = 0
r_255: - 0.1 x358 + x405  = 0
r_256: - 1.0 x359 + x406  = 0
r_257: - 1.0 x360 + x407  = 0
r_258: - 1.0 x361 + x408  = 0
r_259: - 1.0 x362 + x409  = 0
r_260: - 1.0 x363 + x410  = 0
r_261: - 1.0 x364 + x411  = 0
r_262: - 1.0 x365 + x412  = 0
r_263: - 1.0 x366 + x413  = 0
r_264: - 0.1 x367 + x414  = 0
r_265: - 0.1 x368 + x415  = 0
r_266: - 0.1 x369 + x416  = 0
r_267: - 0.1 x370 + x417  = 0
r_268: - 1.0 x371 + x418  = 0
r_269: - 1.0 x372 + x419  = 0
r_270: - 1.0 x373 + x420  = 0
r_271: - 1.0 x374 + x421  = 0
r_272: - 1.0 x375 - 1.0 x376 - 0.7 x378 + x422  = 0
r_273: - 1.0 x377 - 0.3 x378 + x423  = 0
r_274: - 1.0 x379 - 1.0 x380 + x424  = 0
r_275: - 1.0 x381 + x425  = 0
r_276: - 1.0 x382 - 1.0 x383 - 0.7 x385 + x426  = 0
r_277: - 1.0 x384 - 0.3 x385 + x427  = 0
r_278: - 1.0 x386 - 1.0 x387 + x428  = 0
r_279: - 1.0 x388 + x429  = 0
r_280: - 1.0 x389 - 1.0 x390 - 0.7 x392 + x430  = 0
r_281: - 1.0 x391 - 0.3 x392 + x431  = 0
r_282: - 1.0 x393 - 1.0 x394 + x432  = 0
r_283: - 1.0 x395 + x433  = 0
r_284: - 1.0 x396 - 0.9 x410 + x434 + x435  = 0
r_285: - 1.0 x397 - 1.0 x398 - 1.0 x405 - 0.9 x411 - 0.9 x412 - 0.9 x413 + x436 + x437  = 0
r_286: - 1.0 x401 - 0.9 x406 + x438 + x439  = 0
r_287: - 1.0 x402 - 1.0 x403 - 1.0 x404 - 0.9 x407 - 0.9 x408 - 0.9 x409 + x440 + x441  = 0
r_288: - 0.1 x406 + x442  = 0
r_289: - 0.1 x407 + x443  = 0
r_290: - 0.1 x408 + x444  = 0
r_291: - 0.1 x409 + x445  = 0
r_292: - 0.1 x410 + x446  = 0
r_293: - 0.1 x411 + x447  = 0
r_294: - 0.1 x412 + x448  = 0
r_295: - 0.1 x413 + x449  = 0
r_296: - 1.0 x414 - 0.9 x418 + x450 + x451  = 0
r_297: - 1.0 x415 - 1.0 x416 - 1.0 x417 - 0.9 x419 - 0.9 x420 - 0.9 x421 + x452 + x453  = 0
r_298: - 0.1 x418 + x454  = 0
r_299: - 0.1 x419 + x455  = 0
r_300: - 0.1 x420 + x456  = 0
r_301: - 0.1 x421 + x457  = 0
r_302: - 1.0 x422 + x458  = 0
r_303: - 1.0 x423 + x459  = 0
r_304: - 1.0 x424 + x460  = 0
r_305: - 1.0 x425 + x461  = 0
r_306: - 1.0 x426 + x462  = 0
r_307: - 1.0 x427 + x463  = 0
r_308: - 1.0 x428 + x464  = 0
r_309: - 1.0 x429 + x465  = 0
r_310: - 1.0 x430 + x466  = 0
r_311: - 1.0 x431 + x467  = 0
r_312: - 1.0 x432 + x468  = 0
r_313: - 1.0 x433 + x469  = 0
r_314: - 1.0 x434 - 1.0 x436 + x470 + x471  = 0
r_315: - 1.0 x435 - 1.0 x437 + x472 + x473  = 0
r_316: - 1.0 x438 - 1.0 x440 + x474 + x475  = 0
r_317: - 1.0 x439 - 1.0 x441 + x476 + x477  = 0
r_318: - 1.0 x442 - 0.9 x458 + x478 + x479  = 0
r_319: - 1.0 x443 - 1.0 x444 - 1.0 x445 - 0.9 x459 - 0.9 x460 - 0.9 x461 + x480 + x481  = 0
r_320: - 1.0 x446 - 0.9 x462 + x482 + x483  = 0
r_321: - 1.0 x447 - 1.0 x448 - 1.0 x449 - 0.9 x463 - 0.9 x464 - 0.9 x465 + x484 + x485  = 0
r_322: - 1.0 x450 - 1.0 x452 + x486 + x487  = 0
r_323: - 1.0 x451 - 1.0 x453 + x488 + x489  = 0
r_324: - 1.0 x454 - 0.9 x466 + x490 + x491  = 0
r_325: - 1.0 x455 - 1.0 x456 - 1.0 x457 - 0.9 x467 - 0.9 x468 - 0.9 x469 + x492 + x493  = 0
r_326: - 0.1 x458 + x494  = 0
r_327: - 0.1 x459 + x495  = 0
r_328: - 0.1 x460 + x496  = 0
r_329: - 0.1 x461 + x497  = 0
r_330: - 0.1 x462 + x498  = 0
r_331: - 0.1 x463 + x499  = 0
r_332: - 0.1 x464 + x500  = 0
r_333: - 0.1 x465 + x501  = 0
r_334: - 0.1 x466 + x502  = 0
r_335: - 0.1 x467 + x503  = 0
r_336: - 0.1 x468 + x504  = 0
r_337: - 0.1 x469 + x505  = 0
r_338: - 0.7 x470 - 0.7 x486 + x506 + x507  = 0
r_339: - 0.3 x470 - 0.3 x486 + x508 + x509 + x510  = 0
r_340: - 1.0 x471 - 1.0 x472 - 1.0 x487 - 1.0 x488 + x511 + x512 + x513  = 0
r_341: - 1.0 x473 - 1.0 x489 + x514 + x515 + x516  = 0
r_342: - 0.7 x474 + x517 + x518  = 0
r_343: - 0.3 x474 + x519 + x520 + x521  = 0
r_344: - 1.0 x475 - 1.0 x476 + x522 + x523 + x524  = 0
r_345: - 1.0 x477 + x525 + x526 + x527  = 0
r_346: - 1.0 x478 - 1.0 x480 + x528 + x529 + x530  = 0
r_347: - 1.0 x479 - 1.0 x481 + x531 + x532 + x533  = 0
r_348: - 1.0 x482 - 1.0 x484 - 1.0 x490 - 1.0 x492 + x534 + x535 + x536  = 0
r_349: - 1.0 x483 - 1.0 x485 - 1.0 x491 - 1.0 x493 + x537 + x538 + x539  = 0
r_350: - 1.0 x495 - 1.0 x496 - 1.0 x497 + x540 + x541 + x542 - 0.9 x694 - 0.9 x695 - 0.9 x696  = 0
r_351: - 1.0 x498 - 1.0 x502 + x543 + x544 + x545 - 0.9 x697 - 0.9 x701  = 0
r_352: - 1.0 x499 - 1.0 x500 - 1.0 x501 - 1.0 x503 - 1.0 x504 - 1.0 x505 + x546 + x547 + x548 - 0.9 x698 - 0.9 x699 - 0.9 x700 - 0.9 x702 - 0.9 x703 - 0.9 x704  = 0
r_353: - 1.0 x506 - 1.0 x517 + x549 + x550  = 0
r_354: - 1.0 x507 - 1.0 x508 - 0.7 x511 - 1.0 x518 - 1.0 x519 - 0.7 x522 + x551 + x552  = 0
r_355: - 1.0 x509 - 1.0 x520 + x553 + x554  = 0
r_356: - 1.0 x510 - 0.3 x511 - 1.0 x521 - 0.3 x522 + x555 + x556  = 0
r_357: - 1.0 x512 - 1.0 x523 + x557 + x558  = 0
r_358: - 1.0 x513 - 1.0 x514 - 1.0 x524 - 1.0 x525 + x559 + x560  = 0
r_359: - 1.0 x515 - 1.0 x526 + x561 + x562  = 0
r_360: - 1.0 x516 - 1.0 x527 + x563 + x564  = 0
r_361: - 0.7 x528 - 0.7 x534 + x565 + x566  = 0
r_362: - 0.3 x528 - 0.3 x534 + x567 + x568 + x569  = 0
r_363: - 1.0 x529 - 1.0 x535 + x570 + x571 + x572  = 0
r_364: - 1.0 x530 - 1.0 x531 - 1.0 x536 - 1.0 x537 + x573 + x574 + x575  = 0
r_365: - 1.0 x532 - 1.0 x538 + x576 + x577 + x578  = 0
r_366: - 1.0 x533 - 1.0 x539 + x579 + x580 + x581  = 0
r_367: - 1.0 x549 + x582  = 0
r_368: - 1.0 x550 - 1.0 x551 + x583  = 0
r_369: - 1.0 x552 + x584  = 0
r_370: - 1.0 x553 + x585  = 0
r_371: - 1.0 x554 - 1.0 x555 + x586  = 0
r_372: - 1.0 x556 + x587  = 0
r_373: - 1.0 x557 + x588  = 0
r_374: - 1.0 x558 - 1.0 x559 + x589  = 0
r_375: - 1.0 x560 + x590  = 0
r_376: - 1.0 x561 + x591  = 0
r_377: - 1.0 x562 - 1.0 x563 + x592  = 0
r_378: - 1.0 x564 + x593  = 0
r_379: - 1.0 x565 - 0.7 x570 + x594  = 0
r_380: - 1.0 x566 - 1.0 x567 - 0.7 x573 + x595  = 0
r_381: - 1.0 x568 - 0.3 x570 + x596  = 0
r_382: - 1.0 x569 - 0.3 x573 + x597  = 0
r_383: - 1.0 x571 + x598  = 0
r_384: - 1.0 x572 - 1.0 x574 - 1.0 x576 + x599  = 0
r_385: - 1.0 x575 - 1.0 x579 + x600  = 0
r_386: - 1.0 x577 + x601  = 0
r_387: - 1.0 x578 - 1.0 x580 + x602  = 0
r_388: - 1.0 x581 + x603  = 0
r_389: - 0.1 x582 + x604  = 0
r_390: - 0.1 x583 + x605  = 0
r_391: - 0.1 x584 + x606  = 0
r_392: - 0.1 x585 + x607  = 0
r_393: - 0.1 x586 + x608  = 0
r_394: - 0.1 x587 + x609  = 0
r_395: - 0.1 x588 + x610  = 0
r_396: - 0.1 x589 + x611  = 0
r_397: - 0.1 x590 + x612  = 0
r_398: - 0.1 x591 + x613  = 0
r_399: - 0.1 x592 + x614  = 0
r_400: - 0.1 x593 + x615  = 0
r_401: - 1.0 x594 + x616  = 0
r_402: - 1.0 x595 + x617  = 0
r_403: - 1.0 x596 + x618  = 0
r_404: - 1.0 x597 + x619  = 0
r_405: - 1.0 x598 + x620  = 0
r_406: - 1.0 x599 + x621  = 0
r_407: - 1.0 x600 + x622  = 0
r_408: - 1.0 x601 + x623  = 0
r_409: - 1.0 x602 + x624  = 0
r_410: - 1.0 x603 + x625  = 0
r_411: - 1.0 x604 + x626 + x627  = 0
r_412: - 1.0 x605 - 0.9 x616 + x628 + x629  = 0
r_413: - 1.0 x606 - 0.9 x617 + x630 + x631  = 0
r_414: - 1.0 x607 - 1.0 x610 - 1.0 x613 - 0.9 x620 - 0.9 x623 + x632 + x633  = 0
r_415: - 1.0 x608 - 1.0 x611 - 1.0 x614 - 0.9 x618 - 0.9 x621 - 0.9 x624 + x634 + x635  = 0
r_416: - 1.0 x609 - 1.0 x612 - 1.0 x615 - 0.9 x619 - 0.9 x622 - 0.9 x625 + x636 + x637  = 0
r_417: - 0.1 x616 + x638  = 0
r_418: - 0.1 x617 + x639  = 0
r_419: - 0.1 x618 + x640  = 0
r_420: - 0.1 x619 + x641  = 0
r_421: - 0.1 x620 + x642  = 0
r_422: - 0.1 x621 + x643  = 0
r_423: - 0.1 x622 + x644  = 0
r_424: - 0.1 x623 + x645  = 0
r_425: - 0.1 x624 + x646  = 0
r_426: - 0.1 x625 + x647  = 0
r_427: - 1.0 x626 - 1.0 x632 + x648 + x649  = 0
r_428: - 1.0 x627 - 1.0 x633 + x650 + x651  = 0
r_429: - 1.0 x628 - 1.0 x634 + x652 + x653  = 0
r_430: - 1.0 x629 - 1.0 x635 + x654 + x655  = 0
r_431: - 1.0 x630 - 1.0 x636 + x656 + x657  = 0
r_432: - 1.0 x631 - 1.0 x637 + x658 + x659  = 0
r_433: - 0.7 x648 + x660  = 0
r_434: - 0.3 x648 + x661 + x662  = 0
r_435: - 1.0 x649 - 1.0 x650 + x663 + x664  = 0
r_436: - 1.0 x651 + x665 + x666  = 0
r_437: - 0.7 x652 + x667  = 0
r_438: - 0.3 x652 + x668 + x669  = 0
r_439: - 1.0 x653 - 1.0 x654 + x670 + x671  = 0
r_440: - 1.0 x655 + x672 + x673  = 0
r_441: - 0.7 x656 + x674  = 0
r_442: - 0.3 x656 + x675 + x676  = 0
r_443: - 1.0 x657 - 1.0 x658 + x677 + x678  = 0
r_444: - 1.0 x659 + x679 + x680  = 0
r_445: - 1.0 x660 - 1.0 x661 - 0.7 x663 + x681  = 0
r_446: - 1.0 x662 - 0.3 x663 + x682  = 0
r_447: - 1.0 x664 - 1.0 x665 + x683  = 0
r_448: - 1.0 x666 + x684  = 0
r_449: - 1.0 x667 - 1.0 x668 - 0.7 x670 + x685  = 0
r_450: - 1.0 x669 - 0.3 x670 + x686  = 0
r_451: - 1.0 x671 - 1.0 x672 + x687  = 0
r_452: - 1.0 x673 + x688  = 0
r_453: - 1.0 x674 - 1.0 x675 - 0.7 x677 + x689  = 0
r_454: - 1.0 x676 - 0.3 x677 + x690  = 0
r_455: - 1.0 x678 - 1.0 x679 + x691  = 0
r_456: - 1.0 x680 + x692  = 0
r_457: - 1.0 x681 + x693  = 0
r_458: - 1.0 x682 + x694  = 0
r_459: - 1.0 x683 + x695  = 0
r_460: - 1.0 x684 + x696  = 0
r_461: - 1.0 x685 + x697  = 0
r_462: - 1.0 x686 + x698  = 0
r_463: - 1.0 x687 + x699  = 0
r_464: - 1.0 x688 + x700  = 0
r_465: - 1.0 x689 + x701  = 0
r_466: - 1.0 x690 + x702  = 0
r_467: - 1.0 x691 + x703  = 0
r_468: - 1.0 x692 + x704  = 0
r_469: - 0.1 x693 + x705 + x706  = 0
r_470: - 0.1 x694 + x707 + x708  = 0
r_471: - 0.1 x695 + x709 + x710  = 0
r_472: - 0.1 x696 + x711 + x712  = 0
r_473: - 0.1 x697 - 0.1 x701 + x713 + x714  = 0
r_474: - 0.1 x698 - 0.1 x702 + x715 + x716  = 0
r_475: - 0.1 x699 - 0.1 x703 + x717 + x718  = 0
r_476: - 0.1 x700 - 0.1 x704 + x719 + x720  = 0
r_00: + x1 + x2 + x3 + x4 + x5 + x6 + x7 + x8 + x9 + x10 + x11 + x12 + x13 + x14 + x15 + x16 + x17 + x18 + x19 + x20 + x21 + x22 + x23 + x24 + x25 + x26 + x27 + x28 + x29 + x30 + x31 + x32 + x33 + x34 + x35 + x36 + x37 + x38 + x39 + x40 + x41 + x42 + x43 + x44 + x45 + x46 + x47 + x48 + x49 + x50 + x51 + x52 + x53 + x54 + x55 + x56 + x57 + x58 + x59 + x60 + x61 + x62 + x63 + x64 + x65 + x66 + x67 + x68 + x69 + x70 + x71 + x72 + x73 + x74 + x75 + x76 + x77 + x78 + x79 + x80 + x81 + x82 + x83 + x84 + x85 + x86 + x87 + x88 + x89 + x90 + x91 + x92 + x93 + x94 + x95 + x96 + x97 + x98 + x99 + x100 + x101 + x102 + x103 + x104 + x105 + x106 + x107 + x108 + x109 + x110 + x111 + x112 + x113 + x114 + x115 + x116 + x117 + x118 + x119 + x120 + x121 + x122 + x123 + x124 + x125 + x126 + x127 + x128 + x129 + x130 + x131 + x132 + x133 + x134 + x135 + x136 + x137 + x138 + x139 + x140 + x141 + x142 + x143 + x144 + x145 + x146 + x147 + x148 + x149 + x150 + x151 + x152 + x153 + x154 + x155 + x156 + x157 + x158 + x159 + x160 + x161 + x162 + x163 + x164 + x165 + x166 + x167 + x168 + x169 + x170 + x171 + x172 + x173 + x174 + x175 + x176 + x177 + x178 + x179 + x180 + x181 + x182 + x183 + x184 + x185 + x186 + x187 + x188 + x189 + x190 + x191 + x192 + x193 + x194 + x195 + x196 + x197 + x198 + x199 + x200 + x201 + x202 + x203 + x204 + x205 + x206 + x207 + x208 + x209 + x210 + x211 + x212 + x213 + x214 + x215 + x216 + x217 + x218 + x219 + x220 + x221 + x222 + x223 + x224 + x225 + x226 + x227 + x228 + x229 + x230 + x231 + x232 + x233 + x234 + x235 + x236 + x237 + x238 + x239 + x240 + x241 + x242 + x243 + x244 + x245 + x246 + x247 + x248 + x249 + x250 + x251 + x252 + x253 + x254 + x255 + x256 + x257 + x258 + x259 + x260 + x261 + x262 + x263 + x264 + x265 + x266 + x267 + x268 + x269 + x270 + x271 + x272 + x273 + x274 + x275 + x276 + x277 + x278 + x279 + x280 + x281 + x282 + x283 + x284 + x285 + x286 + x287 + x288 + x289 + x290 + x291 + x292 + x293 + x294 + x295 + x296 + x297 + x298 + x299 + x300 + x301 + x302 + x303 + x304 + x305 + x306 + x307 + x308 + x309 + x310 + x311 + x312 + x313 + x314 + x315 + x316 + x317 + x318 + x319 + x320 + x321 + x322 + x323 + x324 + x325 + x326 + x327 + x328 + x329 + x330 + x331 + x332 + x333 + x334 + x335 + x336 + x337 + x338 + x339 + x340 + x341 + x342 + x343 + x344 + x345 + x346 + x347 + x348 + x349 + x350 + x351 + x352 + x353 + x354 + x355 + x356 + x357 + x358 + x359 + x360 + x361 + x362 + x363 + x364 + x365 + x366 + x367 + x368 + x369 + x370 + x371 + x372 + x373 + x374 + x375 + x376 + x377 + x378 + x379 + x380 + x381 + x382 + x383 + x384 + x385 + x386 + x387 + x388 + x389 + x390 + x391 + x392 + x393 + x394 + x395 + x396 + x397 + x398 + x399 + x400 + x401 + x402 + x403 + x404 + x405 + x406 + x407 + x408 + x409 + x410 + x411 + x412 + x413 + x414 + x415 + x416 + x417 + x418 + x419 + x420 + x421 + x422 + x423 + x424 + x425 + x426 + x427 + x428 + x429 + x430 + x431 + x432 + x433 + x434 + x435 + x436 + x437 + x438 + x439 + x440 + x441 + x442 + x443 + x444 + x445 + x446 + x447 + x448 + x449 + x450 + x451 + x452 + x453 + x454 + x455 + x456 + x457 + x458 + x459 + x460 + x461 + x462 + x463 + x464 + x465 + x466 + x467 + x468 + x469 + x470 + x471 + x472 + x473 + x474 + x475 + x476 + x477 + x478 + x479 + x480 + x481 + x482 + x483 + x484 + x485 + x486 + x487 + x488 + x489 + x490 + x491 + x492 + x493 + x494 + x495 + x496 + x497 + x498 + x499 + x500 + x501 + x502 + x503 + x504 + x505 + x506 + x507 + x508 + x509 + x510 + x511 + x512 + x513 + x514 + x515 + x516 + x517 + x518 + x519 + x520 + x521 + x522 + x523 + x524 + x525 + x526 + x527 + x528 + x529 + x530 + x531 + x532 + x533 + x534 + x535 + x536 + x537 + x538 + x539 + x540 + x541 + x542 + x543 + x544 + x545 + x546 + x547 + x548 + x549 + x550 + x551 + x552 + x553 + x554 + x555 + x556 + x557 + x558 + x559 + x560 + x561 + x562 + x563 + x564 + x565 + x566 + x567 + x568 + x569 + x570 + x571 + x572 + x573 + x574 + x575 + x576 + x577 + x578 + x579 + x580 + x581 + x582 + x583 + x584 + x585 + x586 + x587 + x588 + x589 + x590 + x591 + x592 + x593 + x594 + x595 + x596 + x597 + x598 + x599 + x600 + x601 + x602 + x603 + x604 + x605 + x606 + x607 + x608 + x609 + x610 + x611 + x612 + x613 + x614 + x615 + x616 + x617 + x618 + x619 + x620 + x621 + x622 + x623 + x624 + x625 + x626 + x627 + x628 + x629 + x630 + x631 + x632 + x633 + x634 + x635 + x636 + x637 + x638 + x639 + x640 + x641 + x642 + x643 + x644 + x645 + x646 + x647 + x648 + x649 + x650 + x651 + x652 + x653 + x654 + x655 + x656 + x657 + x658 + x659 + x660 + x661 + x662 + x663 + x664 + x665 + x666 + x667 + x668 + x669 + x670 + x671 + x672 + x673 + x674 + x675 + x676 + x677 + x678 + x679 + x680 + x681 + x682 + x683 + x684 + x685 + x686 + x687 + x688 + x689 + x690 + x691 + x692 + x693 + x694 + x695 + x696 + x697 + x698 + x699 + x700 + x701 + x702 + x703 + x704 + x705 + x706 + x707 + x708 + x709 + x710 + x711 + x712 + x713 + x714 + x715 + x716 + x717 + x718 + x719 + x720 = 1
End